outputs/r102.txt.out
filename: R102
Vehicles: 25, Capacity: 200
Total customers : 101
No of routes: 41
Route #1: 28 53 58
Route #2: 13 95 94
Route #3: 97
Route #4: 92 37 100 98
Route #5: 96 59 99 5 60
Route #6: 52 18 83
Route #7: 8 82 7
Route #8: 88 31 70
Route #9: 30 20
Route #10: 66
Route #11: 62 10
Route #12: 90 32
Route #13: 63 11 19 48
Route #14: 47
Route #15: 36 49
Route #16: 64 46
Route #17: 84 45 17 93
Route #18: 85 91 61
Route #19: 16 86
Route #20: 44 38
Route #21: 14 87
Route #22: 2 42 57
Route #23: 15 43
Route #24: 6 89
Route #25: 40 26 12 80
Route #26: 68
Route #27: 24 29 77
Route #28: 76 50 1
Route #29: 69 79 3
Route #30: 78 34
Route #31: 33 81
Route #32: 9
Route #33: 71 35
Route #34: 51 65 54
Route #35: 55 25
Route #36: 21 73 74 72
Route #37: 22
Route #38: 41 75 56
Route #39: 39 67 4
Route #40: 23
Route #41: 27
Cost 2562
